109 197 171 145 114 152 73 130 116 107 115 184 12 4 104 47 170 160 65 153 180 149 10 69 6 178 43 19 195 137 173 174 82 37 52 41 154 95 24 106 105 186 18 192 56 9 191 17 84 131 119 86 23 133 101 21 68 70 99 190 1 189 79 141 40 53 75 199 126 34 193 36 96 74 163 182 35 13 83 172 20 151 88 3 0 150 42 29 16 89 15 78 155 194 181 80 7 30 134 66 161 32 26 124 146 117 45 49 139 159 138 100 162 2 62 175 185 76 85 102 72 44 22 46 123 108 48 136 140 63 33 168 27 122 97 128 164 112 81 59 91 187 196 54 93 158 51 28 38 169 92 147 157 179 98 132 135 5 166 64 60 77 148 177 110 103 58 167 183 90 129 87 67 176 25 11 111 120 165 113 39 143 94 188 55 121 142 127 118 61 125 8 198 57 31 144 50 156 71 14 

